1667224
9,58,59,16,63,21,38,64,67,7,43,46,34,55,26,66,11,6,30,41,25,29,5,56,32,40,60,23,49,19,1,12,42,3,61,24,54,13,47,20,4,48,2,65,45,27,17,36,28,44,14,10,18,57,33,52,22,31,50,53,37,62,39,51,35,68,8,15